8
0 33 67 96 12 78 40 100 
33 0 97 32 37 78 99 39 
67 97 0 4 61 19 65 71 
96 32 4 0 82 46 34 75 
12 37 61 82 0 7 66 15 
78 78 19 46 7 0 5 84 
40 99 65 34 66 5 0 100 
100 39 71 75 15 84 100 0 
RRRBBBRB
